Optimal - objective value -53.70000000
      4 squad[5]                                   1                       0
     15 squad[16]                                  1                       0
    173 squad[137]                                 1                       0
    222 squad[224]                                 1                       0
    233 squad[235]                                 1                       0
    285 squad[287]                                 1                       0
    370 squad[370]                                 1                       0
    371 squad[371]                                 1                       0
    381 squad[381]                                 1                       0
    404 squad[403]                                 1                       0
    431 squad[430]                                 1                       0
    433 squad[431]                                 1                       0
    499 squad[498]                                 1                       0
    500 squad[499]                                 1                       0
    594 squad[593]                                 1                       0
    665 lineup[5]                                  1                    -4.5
    676 lineup[16]                                 1                    -3.5
    883 lineup[224]                                1                    -4.5
    894 lineup[235]                                1                    -3.6
    946 lineup[287]                                1                    -4.5
   1031 lineup[370]                                1                      -5
   1032 lineup[371]                                1                      -5
   1042 lineup[381]                                1                      -5
   1065 lineup[403]                                1                    -4.5
   1092 lineup[430]                                1                    -4.5
   1161 lineup[499]                                1                    -3.6
   1692 captain[370]                               1                      -5
   2364 vicecap[381]                               1                    -0.5
